(set-logic ALL)
(declare-fun var0 () String)
(assert (str.in_re var0 (re.++ (re.+ (re.* (str.to_re "000"))) (re.++ (re.+ (re.union (str.to_re "1") (str.to_re "2"))) (re.++ (re.union (re.union (str.to_re "333") (str.to_re "444")) (re.union (str.to_re "55") (str.to_re "6"))) (re.++ (re.union (re.union (str.to_re "77") (str.to_re "888")) (re.union (str.to_re "99") (str.to_re "aaa"))) (re.++ (re.+ (re.union (str.to_re "bb") (str.to_re "ccc"))) (re.++ (re.+ (re.+ (str.to_re "ddd"))) (re.++ (re.+ (re.* (str.to_re "eee"))) (re.++ (re.* (re.union (str.to_re "f") (str.to_re "ggg"))) (re.* (re.* (str.to_re "hhh")))))))))))))
(check-sat)